JOBS = 1..3;
MACHINES = 1..4;
SPEED = 5;
time = array3d(JOBS,MACHINES,1..SPEED,[46,15,11,9,8,110,38,26,22,19,153,52,37,31,27,54,18,13,11,9,97,33,23,19,17,235,81,57,47,42,84,29,20,17,15,35,12,8,7,6,45,15,11,9,8,39,13,9,8,7,31,10,7,6,5,225,77,55,45,40]);
energy = array3d(JOBS,MACHINES,1..SPEED,[63,86,89,91,92,33,68,77,80,82,21,59,69,73,76,58,83,87,89,91,37,71,79,82,84,9,44,56,62,65,43,74,81,84,86,70,88,92,93,94,63,86,89,91,92,67,87,91,92,93,73,90,93,94,95,10,46,57,63,67]);
precedence = array2d(JOBS,MACHINES,[1,3,0,2,0,3,2,1,2,3,1,0]);
ME = 1;
TE = 125;
st_old = array2d(JOBS,MACHINES,[153,258,0,199,0,216,132,97,108,153,77,0]);
SpeedScaling = array2d(JOBS,MACHINES,[1,5,2,1,1,5,1,1,1,1,1,2]);
